c 41_3_checker.cnf
c
c field = 41
c formula set type = 3_checker
c
p cnf 4 46
74 
76 
78 
-72 
75 
77 
79 
-73 
74 
76 
78 
-82 
75 
77 
79 
-83 
76 
78 
82 
-74 
77 
79 
83 
-75 
76 
78 
82 
-84 
77 
79 
83 
-85 
78 
82 
84 
-76 
79 
83 
85 
-77 
78 
82 
84 
-86 
79 
83 
85 
-87 
82 
84 
86 
-78 
83 
85 
87 
-79 
82 
84 
86 
-88 
83 
85 
87 
-89 
20 
50 
110 
-140 
21 
51 
111 
-141 
50 
110 
140 
-20 
51 
111 
141 
-21 
50 
110 
140 
-170 
51 
111 
141 
-171 
110 
140 
170 
-50 
111 
141 
171 
-51 
110 
140 
170 
-200 
111 
141 
171 
-201 
16 
48 
112 
-144 
17 
49 
113 
-145 
48 
112 
144 
-16 
49 
113 
145 
-17 
48 
112 
144 
-176 
49 
113 
145 
-177 
112 
144 
176 
-48 
113 
145 
177 
-49 
112 
144 
176 
-208 
113 
145 
177 
-209 
24 
52 
108 
-136 
25 
53 
109 
-137 
52 
108 
136 
-24 
53 
109 
137 
-25 
52 
108 
136 
-164 
53 
109 
137 
-165 
108 
136 
164 
-52 
109 
137 
165 
-53 
108 
136 
164 
-192 
109 
137 
165 
-193 
